

*************************************************************

   NEOS Server Version 6.0
   Job#     : 18292948
   Password : pDYHXChc
   User     : 
   Solver   : milp:Gurobi:AMPL
   Start    : 2026-01-28 15:05:26
   End      : 2026-01-28 15:05:31
   Host     : prod-sub-1.neos-server.org

   Disclaimer:

   This information is provided without any express or
   implied warranty. In particular, there is no warranty
   of any kind concerning the fitness of this
   information for any particular purpose.

   Announcements:
*************************************************************
You are using the solver gurobi_ampl.
Checking ampl.mod for gurobi_options...
Checking ampl.com for gurobi_options...
Executing AMPL.
processing data.
processing commands.
Executing on prod-exec-6.neos-server.org
N = 20


"option presolve 0;" used, but "option presolve 10;" might work better.
20 variables, all nonlinear
0 algebraic constraints
3 logical constraints
1 linear objective; 20 nonzeros.

Gurobi 12.0.3:   tech:threads = 4
  pre:solve = 2
  alg:iisfind = 1
Set parameter LogToConsole to value 1
  tech:outlev = 1

AMPL MP initial flat model has 20 variables (20 integer, 0 binary);
Objectives: 1 linear; 
Constraints:  40 linear;
Logical expressions:  3 alldiff;

AMPL MP final model has 1264 variables (63 integer, 1200 binary);
Objectives: 1 linear; 
Constraints:  218 linear;


Set parameter InfUnbdInfo to value 1
Gurobi Optimizer version 12.0.3 build v12.0.3rc0 (linux64 - "Rocky Linux 8.10 (Green Obsidian)")

CPU model: Intel(R) Xeon(R) Gold 6140 CPU @ 2.30GHz, instruction set [SSE2|AVX|AVX2|AVX512]
Thread count: 36 physical cores, 72 logical processors, using up to 4 threads

Non-default parameters:
InfUnbdInfo  1
Presolve  2
Threads  4

Optimize a model with 218 rows, 1264 columns and 3716 nonzeros
Model fingerprint: 0xaabcbe30
Variable types: 44 continuous, 1220 integer (0 binary)
Coefficient statistics:
  Matrix range     [1e+00, 4e+01]
  Objective range  [0e+00, 0e+00]
  Bounds range     [1e+00, 2e+01]
  RHS range        [1e+00, 2e+01]
Presolve removed 70 rows and 847 columns
Presolve time: 0.04s
Presolved: 148 rows, 417 columns, 2296 nonzeros
Variable types: 0 continuous, 417 integer (400 binary)
Root relaxation presolve removed 18 rows and 1 columns
Root relaxation presolved: 130 rows, 416 columns, 1936 nonzeros


Root relaxation: objective 0.000000e+00, 169 iterations, 0.01 seconds (0.00 work units)

    Nodes    |    Current Node    |     Objective Bounds      |     Work
 Expl Unexpl |  Obj  Depth IntInf | Incumbent    BestBd   Gap | It/Node Time

H    0     0                       0.0000000    0.00000  0.00%     -    0s
     0     0    0.00000    0   79    0.00000    0.00000  0.00%     -    0s

Explored 1 nodes (169 simplex iterations) in 0.05 seconds (0.05 work units)
Thread count was 4 (of 72 available processors)

Solution count 1: 0 

Optimal solution found (tolerance 1.00e-04)
Best objective 0.000000000000e+00, best bound 0.000000000000e+00, gap 0.0000%
Gurobi 12.0.3: optimal solution; objective 0
169 simplex iterations
1 branching node
Solution
========
 1 15
 2  3
 3 18
 4  6
 5  4
 6  9
 7  5
 8 16
 9 14
10  7
11 20
12  1
13 19
14  8
15 10
16 12
17 17
18  2
19 11
20 13

NEOS Server Home

